Cu  O  H                                
   1.00000000000000     
     7.7055272908810499    0.0000000000000000    0.0000000000000000
     3.8527636454405298    6.6731823834572799    0.0000000000000000
     0.0000000000000000    0.0000000000000000   16.2915366872496996
   Cu   O    H 
    36     1     2
Selective dynamics
Direct
  0.0000000000000000  0.0000000000000000  0.0061381563887863   F   F   F
  0.3333333333333357  0.0000000000000000  0.0061381563887863   F   F   F
  0.6666666666666643  0.0000000000000000  0.0061381563887863   F   F   F
  0.0000000000000000  0.3333333333333357  0.0061381563887863   F   F   F
  0.3333333333333357  0.3333333333333357  0.0061381563887863   F   F   F
  0.6666666666666643  0.3333333333333357  0.0061381563887863   F   F   F
  0.0000000000000000  0.6666666666666643  0.0061381563887863   F   F   F
  0.3333333333333357  0.6666666666666643  0.0061381563887863   F   F   F
  0.6666666666666643  0.6666666666666643  0.0061381563887863   F   F   F
  0.1111111111111143  0.1111111111111143  0.1348662767625513   F   F   F
  0.4444444444444429  0.1111111111111143  0.1348662767625513   F   F   F
  0.7777777777777786  0.1111111111111143  0.1348662767625513   F   F   F
  0.1111111111111143  0.4444444444444429  0.1348662767625513   F   F   F
  0.4444444444444429  0.4444444444444429  0.1348662767625513   F   F   F
  0.7777777777777786  0.4444444444444429  0.1348662767625513   F   F   F
  0.1111111111111143  0.7777777777777786  0.1348662767625513   F   F   F
  0.4444444444444429  0.7777777777777786  0.1348662767625513   F   F   F
  0.7777777777777786  0.7777777777777786  0.1348662767625513   F   F   F
  0.8906541839765655  0.2217153937035454  0.2612384080083706   T   T   T
  0.2244475678284974  0.2230165216878089  0.2631889807880128   T   T   T
  0.5554765533489193  0.2226782881395244  0.2629665208283367   T   T   T
  0.8898971928210828  0.5554661846141589  0.2616930905881030   T   T   T
  0.2242170800179399  0.5537321778517121  0.2626995090798516   T   T   T
  0.5568608667095125  0.5555364200014964  0.2612702977857518   T   T   T
  0.8903253405313230  0.8887564128288490  0.2613773935771455   T   T   T
  0.2228820668006563  0.8894813613516659  0.2609201845070885   T   T   T
  0.5566385429912291  0.8886225029467186  0.2617805762837077   T   T   T
  0.0024657741770316  0.9995870658668048  0.3886902785306072   T   T   T
  0.3353871627090059  0.9984966638162520  0.3886439371381926   T   T   T
  0.6709704247744720  0.9971770054987306  0.3883305682596224   T   T   T
  0.0014690258551938  0.3333421412746380  0.3887968603228261   T   T   T
  0.3371125418027094  0.3322376667470134  0.3940479060328588   T   T   T
  0.6715344434800766  0.3337015735946073  0.3875519393163234   T   T   T
  0.0012561066143322  0.6671760670347934  0.3884901325615142   T   T   T
  0.3354456434342453  0.6691853989316563  0.3871720868452953   T   T   T
  0.6688636791695785  0.6662012937685171  0.3893327079710003   T   T   T
  0.3747220887303151  0.3510810167158183  0.5388122620800448   T   T   T
  0.2485362616143907  0.3711263820956428  0.5613131058520441   T   T   T
  0.3594991899240234  0.4851202844085954  0.5368816794587890   T   T   T
 
  0.00000000E+00  0.00000000E+00  0.00000000E+00
  0.00000000E+00  0.00000000E+00  0.00000000E+00
  0.00000000E+00  0.00000000E+00  0.00000000E+00
  0.00000000E+00  0.00000000E+00  0.00000000E+00
  0.00000000E+00  0.00000000E+00  0.00000000E+00
  0.00000000E+00  0.00000000E+00  0.00000000E+00
  0.00000000E+00  0.00000000E+00  0.00000000E+00
  0.00000000E+00  0.00000000E+00  0.00000000E+00
  0.00000000E+00  0.00000000E+00  0.00000000E+00
  0.00000000E+00  0.00000000E+00  0.00000000E+00
  0.00000000E+00  0.00000000E+00  0.00000000E+00
  0.00000000E+00  0.00000000E+00  0.00000000E+00
  0.00000000E+00  0.00000000E+00  0.00000000E+00
  0.00000000E+00  0.00000000E+00  0.00000000E+00
  0.00000000E+00  0.00000000E+00  0.00000000E+00
  0.00000000E+00  0.00000000E+00  0.00000000E+00
  0.00000000E+00  0.00000000E+00  0.00000000E+00
  0.00000000E+00  0.00000000E+00  0.00000000E+00
  0.00000000E+00  0.00000000E+00  0.00000000E+00
  0.00000000E+00  0.00000000E+00  0.00000000E+00
  0.00000000E+00  0.00000000E+00  0.00000000E+00
  0.00000000E+00  0.00000000E+00  0.00000000E+00
  0.00000000E+00  0.00000000E+00  0.00000000E+00
  0.00000000E+00  0.00000000E+00  0.00000000E+00
  0.00000000E+00  0.00000000E+00  0.00000000E+00
  0.00000000E+00  0.00000000E+00  0.00000000E+00
  0.00000000E+00  0.00000000E+00  0.00000000E+00
  0.00000000E+00  0.00000000E+00  0.00000000E+00
  0.00000000E+00  0.00000000E+00  0.00000000E+00
  0.00000000E+00  0.00000000E+00  0.00000000E+00
  0.00000000E+00  0.00000000E+00  0.00000000E+00
  0.00000000E+00  0.00000000E+00  0.00000000E+00
  0.00000000E+00  0.00000000E+00  0.00000000E+00
  0.00000000E+00  0.00000000E+00  0.00000000E+00
  0.00000000E+00  0.00000000E+00  0.00000000E+00
  0.00000000E+00  0.00000000E+00  0.00000000E+00
  0.00000000E+00  0.00000000E+00  0.00000000E+00
  0.00000000E+00  0.00000000E+00  0.00000000E+00
  0.00000000E+00  0.00000000E+00  0.00000000E+00
